CapLotSizing_PM/src/Instancias/TCLSHT/6i18p2m/NBA02.OUT
 CG ITER, OVMR, OVMRUB =           1   24057.1074219   24057.1054688
 CG ITER, OVMR, OVMRUB =           2   24057.1054688   24057.1054688
 CG ITER, OVMR, OVMRUB =           3   23159.1406250   24057.1054688
 CG ITER, OVMR, OVMRUB =           4   21935.2597656   24057.1054688
 CG ITER, OVMR, OVMRUB =           5   20259.4433594   24057.1054688
 CG ITER, OVMR, OVMRUB =           6   20439.6386719   24057.1054688
 CG ITER, OVMR, OVMRUB =           7   20470.3027344   24057.1054688
 CG ITER, OVMR, OVMRUB =           8   20594.7968750   24057.1054688
 CG ITER, OVMR, OVMRUB =           9   20756.8710938   24057.1054688
 CG ITER, OVMR, OVMRUB =          10   20915.8125000   24057.1054688
 CG ITER, OVMR, OVMRUB =          11   21085.7988281   24057.1054688
 CG ITER, OVMR, OVMRUB =          12   21235.2167969   24057.1054688
 CG ITER, OVMR, OVMRUB =          13   21371.8964844   24057.1054688
 CG ITER, OVMR, OVMRUB =          14   21495.4316406   24057.1054688
 CG ITER, OVMR, OVMRUB =          15   21618.0390625   24057.1054688
 CG ITER, OVMR, OVMRUB =          16   21719.6582031   24004.0820312
 CG ITER, OVMR, OVMRUB =          17   21807.9531250   23778.1074219
 CG ITER, OVMR, OVMRUB =          18   21914.1113281   23778.1074219
 CG ITER, OVMR, OVMRUB =          19   21990.9707031   23778.1074219
 CG ITER, OVMR, OVMRUB =          20   22071.3808594   23778.1074219
 CG ITER, OVMR, OVMRUB =          21   22146.8730469   23778.1074219
 CG ITER, OVMR, OVMRUB =          22   22204.1523438   23778.1074219
 CG ITER, OVMR, OVMRUB =          23   22220.4003906   23778.1074219
 CG ITER, OVMR, OVMRUB =          24   22236.6972656   23778.1074219
 CG ITER, OVMR, OVMRUB =          25   22258.1542969   23778.1074219
 CG ITER, OVMR, OVMRUB =          26   22272.7890625   23778.1074219
 CG ITER, OVMR, OVMRUB =          27   22282.3515625   23778.1074219
 CG ITER, OVMR, OVMRUB =          28   22287.1933594   23778.1074219
 CG ITER, OVMR, OVMRUB =          29   22292.1464844   23778.1074219
 CG ITER, OVMR, OVMRUB =          30   22294.0722656   23778.1074219
 CG ITER, OVMR, OVMRUB =          31   22296.5839844   23778.1074219
 CG ITER, OVMR, OVMRUB =          32   22298.1523438   23778.1074219
 CG ITER, OVMR, OVMRUB =          33   22300.5058594   23778.1074219
 CG ITER, OVMR, OVMRUB =          34   22302.4062500   23567.0644531
 CG ITER, OVMR, OVMRUB =          35   22304.4824219   23567.0644531
 CG ITER, OVMR, OVMRUB =          36   22306.3320312   23510.7832031
 CG ITER, OVMR, OVMRUB =          37   22307.5039062   23510.7832031
 CG ITER, OVMR, OVMRUB =          38   22308.1562500   23510.7832031
 CG ITER, OVMR, OVMRUB =          39   22310.2070312   23510.7832031
 CG ITER, OVMR, OVMRUB =          40   22310.0332031   23510.7832031
 CG ITER, OVMR, OVMRUB =          41   22308.9824219   23510.7832031
 CG ITER, OVMR, OVMRUB =          42   22309.0312500   23510.7832031
 CG ITER, OVMR, OVMRUB =          43   22309.1718750   23510.7832031
 CG ITER, OVMR, OVMRUB =          44   22309.3378906   23018.6015625
 CG ITER, OVMR, OVMRUB =          45   22309.5800781   23018.6015625
 CG ITER, OVMR, OVMRUB =          46   22309.3984375   23018.6015625
 CG ITER, OVMR, OVMRUB =          47   22309.3984375   23018.6015625
OVLB =   22309.3984375 OVLUB =   23018.6015625 TIME =       8.7600002
